(declare-const a Real)
(declare-const b Real)
(declare-const c Real)
(assert (= (* a b c) 1))
(assert (> a 0))
(assert (> b 0))
(assert (> c 0))
(assert (not (<= (+ (pow (* (+ 1 (* (pow a (/ 4 3)) (pow b (/ 4 3)))) (+ (pow c (* 10 (pow 3 -1))) (* (pow b (/ 8 3)) (pow (+ (* (/ 1 5) a) (* (/ 4 5) c)) (/ 10 3))))) (/ 1 2)) (* (pow a (/ 5 3)) (pow (* b c) (/ 2 3))) (* (pow b (pow 3 -1)) (pow (* a c) (/ 4 3))) (* (pow c (pow 3 -1)) (pow (* a b) (/ 4 3))) (* -1 a (pow c 2)) (* -1 b (pow a 2)) (* -1 c (pow b 2)) (* -3 a b c) (* (/ 1 343) (pow 7 (/ 2 3)) (pow a (/ 2 3)) (pow (+ (* 2 c) (* 5 b)) (/ 7 3)))) 0)))
(check-sat)
(get-model)
(exit)